8663
1 1 1 0 1 1 1 1 1 0 1 1 1 0 0 1 1 1 1 1 
0 0 0 0 0 0 0 1 1 1 1 1 1 6 6 2 2 2 2 2 2 4 4 4 4 4 4 4 4 5 5 5 5 5 5 5 5 5 0 0 2 2 11 12 18 16 18 7 15 16 8 8 11 16 18 19 5 15 10 10 12 2 15 17 18 7 11 12 7 10 18 12 18 17 17 17 11 16 10 7 